15
45
854
632
654
833
791
643
761
820
880
612
774
637
720
887
840
337	416
586	264
820	197
569	823
842	142
241	294
876	432
540	831
562	427
615	992
691	789
219	971
101	986
686	307
35	651
629	209
628	996
833	872
185	51
243	54
379	526
765	332
172	107
565	888
155	734
426	777
822	863
571	410
761	338
772	99
609	819
182	164
109	857
243	619
353	666
846	704
498	39
692	263
267	634
753	710
367	909
161	288
821	325
564	721
586	543
